NAME : rbg038a.tw.5699.tour
COMMENT : Length = 5699
COMMENT : Found by LKH [Keld Helsgaun] Tue Nov  7 19:33:19 2017
TYPE : TOUR
DIMENSION : 39
TOUR_SECTION
1
3
2
4
5
6
7
10
9
8
13
12
15
16
17
22
11
19
14
20
21
23
18
25
24
26
28
27
31
32
30
29
34
33
35
36
37
38
39
-1
EOF
